Route #1: 17 51 33
Route #2: 1 43 42 41 23
Route #3: 22 28 21
Route #4: 53 14 35
Route #5: 19 54 13 27
Route #6: 29 45 4
Route #7: 6 2 30
Route #8: 48 5 15
Route #9: 20 37 36 47
Route #10: 11 38
Route #11: 10 31 39
Route #12: 9 25 50
Route #13: 18 24 49 16
Route #14: 3 44 32
Route #15: 40 12 26
Route #16: 7 8 52 34
Route #17: 46
Cost 986